n_res = 4;
rcap = [21, 29, 80, 100];
rtype = [1, 1, 2, 2];
n_tasks = 14;
modes = [ {1, 2, 3}, {4, 5, 6}, {7, 8, 9}, {10, 11, 12}, {13, 14, 15}, {16, 17, 18}, {19, 20, 21}, {22, 23, 24}, {25, 26, 27}, {28, 29, 30}, {31, 32, 33}, {34, 35, 36}, {37, 38, 39}, {40, 41, 42} ];
succ = [ {4, 7, 10}, {6, 7}, {4, 5, 8}, {11, 12, 14}, {7, 10}, {10, 13}, {9}, {11}, {11, 12, 14}, {12, 14}, {13}, {}, {}, {} ];
n_opt = 42;
dur = [6, 6, 9, 3, 3, 7, 2, 7, 8, 3, 5, 10, 4, 6, 9, 3, 5, 5, 5, 7, 9, 9, 9, 10, 2, 5, 10, 3, 4, 7, 2, 2, 8, 4, 5, 6, 6, 7, 9, 7, 7, 8];
rreq = [|  7,  6,  5,  9,  7,  1,  2,  2,  1,  9,  7,  5,  6,  3,  3,  8,  3,  6,  4,  4,  1,  3,  3,  3, 10,  9,  9,  5,  5,  4,  3,  3,  3,  4,  3,  2, 10,  9,  8,  8,  6,  5
        |  9,  8,  5,  7,  9,  5,  8,  7,  6,  6,  6,  5,  9,  8,  6,  4,  4,  3,  7,  6,  5,  9,  7,  4,  2,  2,  2,  7,  6,  4,  5,  6,  2,  6,  6,  5,  6,  6,  4,  8,  8,  8
        |  6,  6,  5,  3,  3,  3,  4,  4,  3,  8,  7,  7,  6,  4,  4,  5,  4,  4,  6,  6,  5,  3,  3,  1, 10,  9,  7,  3,  3,  3,  8,  8,  3,  4,  3,  3, 10,  7,  4,  4,  4,  4
        |  5,  6,  4,  6,  8,  3,  9,  8,  7,  6,  4,  3,  8,  5,  3,  7,  7,  6, 10,  7,  6,  6,  7,  3,  6,  6,  4,  9,  8,  8,  8,  6,  3,  6,  5,  2,  2,  2,  1,  6,  8,  3 |];
